(declare-const term_to_project_onto Real)
(declare-const term_to_project_onto0 Real)
(assert (exists
         ((|x'?1| Int) (|__cost'?2| Int) (n?3 Int) (x?4 Int) (__cost?5 Int))
         (and (<= (- x?4) 0) (<= (+ (- n?3) x?4 1) 0) (<= (- __cost?5) 0)
                (<= (+ (- __cost?5) -1) 0) (= (+ |x'?1| (- x?4) -1) 0)
                (= (+ |__cost'?2| (- __cost?5) -1) 0)
                (= term_to_project_onto0 (+ |__cost'?2| (- __cost?5)))
                (= term_to_project_onto (+ |x'?1| (- x?4))))))
(check-sat)
